c 8 <=> (f_0 > 0.5) 
c 6 <=> (f_0 > 1) 
c 12 <=> (f_0 > 2) 
c 1 <=> (f_0 > 3) 
c 15 <=> (f_0 > 5) 
c 21 <=> (f_0 > 7) 
c 17 <=> (f_0 > 9) 
c 20 <=> (f_0 > 10) 
c 18 <=> (f_0 > 12) 
c 19 <=> (f_0 > 14) 
c 14 <=> (f_0 > 20) 
c 24 <=> (f_0 > 23.0) 
c 23 <=> (f_0 > 24) 
c 22 <=> (f_0 > 27) 

c 2 <=> (f_3 > 0.5) 

c 3 <=> (f_8 > 0.5) 

c 4 <=> (f_10 > 0.5) 

c 5 <=> (f_1 > 0.5) 

c 7 <=> (f_4 > 0.5) 

c 9 <=> (f_9 > 0.5) 

c 10 <=> (f_2 > 0.5) 

c 11 <=> (f_6 > 0.5) 

c 13 <=> (f_5 > 0.5) 

c 16 <=> (f_7 > 0.5) 

p cnf 24 65
1 2 3 4 5 6 7 -8 -10 0
1 2 3 4 5 6 -7 8 10 0
1 2 3 4 5 6 -7 -8 0
1 2 3 4 5 -6 -11 10 0
1 2 3 4 -5 10 9 6 11 0
1 2 3 4 -5 10 9 -6 10 0
1 2 3 4 -5 10 9 -6 -10 0
1 2 3 4 -5 10 -9 7 -6 0
1 2 3 4 -5 -10 7 -5 0
1 2 3 4 -5 -10 -7 0
1 2 3 -4 9 -6 10 5 -10 0
1 2 3 -4 -9 10 -12 5 7 0
1 2 3 -4 -9 10 -12 -5 0
1 2 3 -4 -9 -10 12 6 -8 0
1 2 3 -4 -9 -10 12 -6 0
1 2 -3 -5 -10 0
1 -2 6 9 8 7 -3 5 -4 0
1 -2 6 9 8 -7 5 0
1 -2 6 9 -8 13 11 7 5 0
1 -2 6 9 -8 13 11 7 -5 0
1 -2 6 9 -8 13 11 -7 5 0
1 -2 6 -9 5 -7 8 4 0
1 -2 6 -9 -5 7 3 8 -4 0
1 -2 -6 9 10 7 11 -5 -3 0
1 -2 -6 9 10 7 -11 0
1 -2 -6 9 10 -7 0
1 -2 -6 9 -10 0
1 -2 -6 -9 11 -5 -7 10 -4 0
1 -2 -6 -9 11 -5 -7 -10 4 0
1 -2 -6 -9 -11 0
-1 14 2 15 7 7 9 4 11 0
-1 14 2 15 7 7 9 -4 0
-1 14 2 15 7 7 -9 4 11 0
-1 14 2 15 7 7 -9 4 -11 0
-1 14 2 15 7 -7 16 11 10 0
-1 14 2 15 7 -7 16 -11 -10 0
-1 14 2 15 7 -7 -16 0
-1 14 2 15 -7 -5 10 9 -7 0
-1 14 2 -15 13 16 9 17 4 0
-1 14 2 -15 13 16 9 17 -4 0
-1 14 2 -15 13 16 9 -17 11 0
-1 14 2 -15 13 16 -9 7 18 0
-1 14 2 -15 13 16 -9 -7 -19 0
-1 14 -2 11 3 20 17 15 7 0
-1 14 -2 11 3 20 17 15 -7 0
-1 14 -2 11 3 20 17 -15 -21 0
-1 14 -2 11 3 -20 0
-1 14 -2 11 -3 0
-1 -14 4 0
-1 -14 -4 22 23 24 10 0
-1 -14 -4 22 23 -24 0
-1 -14 -4 -22 0
t 8 -6 0
t 6 -12 0
t 12 -1 0
t 1 -15 0
t 15 -21 0
t 21 -17 0
t 17 -20 0
t 20 -18 0
t 18 -19 0
t 19 -14 0
t 14 -24 0
t 24 -23 0
t 23 -22 0
